30	100	100	100
94	87	84
71	51	60
59	99	65
68	59	81
80	84	90
71	70	91
66	69	56
61	58	65
90	79	63
73	95	69
98	51	81
70	90	80
65	89	69
77	81	55
90	91	56
51	94	60
51	96	57
55	60	80
53	84	51
95	76	84
95	98	61
81	55	79
51	55	93
62	68	63
67	98	65
61	97	55
96	85	94
59	82	56
92	84	88
88	78	82
